(set-logic HORN)
(set-info :source |
    Benchmark: C_VC
    Output by Princess (http://www.philipp.ruemmer.org/princess.shtml)
|)
(set-info :status sat)
;===============================================================================
; Encoding of Heap sorts and operations
;-------------------------------------------------------------------------------
(define-sort Addr() Int)
(declare-datatypes ((HeapObject 0) (TSLL 0))
                   (((O_Int (getInt Int)) (O_UInt (getUInt Int)) (O_Addr (getAddr Addr)) (O_TSLL (getTSLL TSLL)) (defObj))
                   ((TSLL (next Addr) (data Int)))))
(declare-datatypes ((AllocResHeap 0) (Heap 0))
                   (((AllocResHeap   (newHeap Heap) (newAddr Addr)))
                    ((HeapCtor (HeapSize Int)
                               (HeapContents (Array Addr HeapObject))))))
(define-fun nullAddr  () Addr 0)
(define-fun valid     ((h Heap) (p Addr)) Bool
  (and (>= (HeapSize h) p) (> p 0)))
(define-fun emptyHeap () Heap (
  HeapCtor 0 (( as const (Array Addr HeapObject)) defObj)))
(define-fun read ((h Heap) (p Addr)) HeapObject
  (ite (valid h p)
       (select (HeapContents h) p)
       defObj))
(define-fun write ((h Heap) (p Addr) (o HeapObject)) Heap
  (ite (valid h p)
       (HeapCtor (HeapSize h) (store (HeapContents h) p o))
       h))
(define-fun alloc   ((h Heap) (o HeapObject)) AllocResHeap
  (AllocResHeap (HeapCtor (+ 1 (HeapSize h))
                    (store (HeapContents h) (+ 1 (HeapSize h)) o))
          (+ 1 (HeapSize h))))

;===============================================================================
(declare-fun inv_main103 (Heap Addr Addr Int) Bool)
(declare-fun inv_main106 (Heap Addr Addr Int) Bool)
(declare-fun inv_main109 (Heap Addr Addr Int) Bool)
(declare-fun inv_main11 (Heap Addr Addr Int) Bool)
(declare-fun inv_main111 (Heap Addr Addr Int) Bool)
(declare-fun inv_main119 (Heap Addr Addr Int) Bool)
(declare-fun inv_main12 (Heap Addr Addr Int Addr) Bool)
(declare-fun inv_main13 (Heap Addr Addr Int) Bool)
(declare-fun inv_main16 (Heap Addr Addr Int) Bool)
(declare-fun inv_main17 (Heap Addr Addr Int) Bool)
(declare-fun inv_main2 (Heap) Bool)
(declare-fun inv_main20 (Heap Addr Addr Int) Bool)
(declare-fun inv_main23 (Heap Addr Addr Int) Bool)
(declare-fun inv_main28 (Heap Addr Addr Int) Bool)
(declare-fun inv_main3 (Heap Addr) Bool)
(declare-fun inv_main32 (Heap Addr Addr Int) Bool)
(declare-fun inv_main37 (Heap Addr Addr Int) Bool)
(declare-fun inv_main4 (Heap Addr) Bool)
(declare-fun inv_main40 (Heap Addr Addr Int) Bool)
(declare-fun inv_main43 (Heap Addr Addr Int) Bool)
(declare-fun inv_main45 (Heap Addr Addr Int) Bool)
(declare-fun inv_main49 (Heap Addr Addr Int) Bool)
(declare-fun inv_main53 (Heap Addr Addr Int) Bool)
(declare-fun inv_main56 (Heap Addr Addr Int) Bool)
(declare-fun inv_main58 (Heap Addr Addr Int) Bool)
(declare-fun inv_main61 (Heap Addr Addr Int) Bool)
(declare-fun inv_main63 (Heap Addr Addr Int) Bool)
(declare-fun inv_main68 (Heap Addr Addr Int) Bool)
(declare-fun inv_main7 (Heap Addr Addr Int) Bool)
(declare-fun inv_main72 (Heap Addr Addr Int) Bool)
(declare-fun inv_main75 (Heap Addr Addr Int) Bool)
(declare-fun inv_main77 (Heap Addr Addr Int) Bool)
(declare-fun inv_main80 (Heap Addr Addr Int) Bool)
(declare-fun inv_main82 (Heap Addr Addr Int) Bool)
(declare-fun inv_main86 (Heap Addr Addr Int) Bool)
(declare-fun inv_main88 (Heap Addr Addr Int) Bool)
(declare-fun inv_main92 (Heap Addr Addr Int) Bool)
(declare-fun inv_main94 (Heap Addr Addr Int) Bool)
(declare-fun inv_main99 (Heap Addr Addr Int) Bool)
(assert (inv_main2 emptyHeap))
(assert (forall ((var0 Int) (var1 Addr) (var2 Addr) (var3 Heap)) (or (not (and (inv_main53 var3 var2 var1 var0) (and (= var2 nullAddr) (= var0 3)))) (inv_main77 var3 var2 var1 var0))))
(assert (forall ((var0 TSLL) (var1 Heap)) (or (not (inv_main2 var1)) (inv_main3 (newHeap (alloc var1 (O_TSLL var0))) (newAddr (alloc var1 (O_TSLL var0)))))))
(assert (forall ((var0 Addr) (var1 Int) (var2 Addr) (var3 Addr) (var4 Heap) (var5 Int) (var6 Addr) (var7 Addr) (var8 Heap)) (or (not (and (inv_main72 var8 var7 var6 var5) (and (is-O_TSLL (read var8 var7)) (and (and (and (and (= var4 var8) (= var3 var7)) (= var2 var6)) (= var1 var5)) (= var0 (next (getTSLL (read var8 var7)))))))) (inv_main103 var4 var3 var0 var1))))
(assert (forall ((var0 Addr) (var1 Int) (var2 Addr) (var3 Addr) (var4 Heap) (var5 Int) (var6 Addr) (var7 Addr) (var8 Heap)) (or (not (and (inv_main109 var8 var7 var6 var5) (and (is-O_TSLL (read var8 var6)) (and (and (and (and (= var4 var8) (= var3 var7)) (= var2 var6)) (= var1 var5)) (= var0 (next (getTSLL (read var8 var6)))))))) (inv_main103 var4 var3 var0 var1))))
(assert (forall ((var0 Addr) (var1 Heap)) (or (not (and (inv_main3 var1 var0) (is-O_TSLL (read var1 var0)))) (inv_main4 (write var1 var0 (O_TSLL (TSLL nullAddr (data (getTSLL (read var1 var0)))))) var0))))
(assert (forall ((var0 Int) (var1 Addr) (var2 Addr) (var3 Heap) (var4 Addr) (var5 Int) (var6 Addr) (var7 Addr) (var8 Heap)) (or (not (and (inv_main75 var8 var7 var6 var5) (and (and (= var4 nullAddr) (is-O_TSLL (read var8 var7))) (and (and (and (and (= var3 var8) (= var2 var7)) (= var1 var6)) (= var0 var5)) (= var4 (next (getTSLL (read var8 var7)))))))) (inv_main82 var3 var2 var1 var0))))
(assert (forall ((var0 Int) (var1 Addr) (var2 Addr) (var3 Heap)) (or (not (and (inv_main106 var3 var2 var1 var0) (= var0 0))) (inv_main109 var3 var2 var1 var0))))
(assert (forall ((var0 Int) (var1 Addr) (var2 Addr) (var3 Heap) (var4 Int) (var5 Int) (var6 Addr) (var7 Addr) (var8 Heap) (var9 Int) (var10 Int) (var11 Addr) (var12 Addr) (var13 Heap)) (or (not (and (inv_main106 var13 var12 var11 var10) (and (and (not (= var9 0)) (and (and (not (= var10 0)) (is-O_TSLL (read var13 var11))) (and (and (and (and (= var8 var13) (= var7 var12)) (= var6 var11)) (= var5 var10)) (= var4 (data (getTSLL (read var13 var11))))))) (and (and (and (and (= var3 var8) (= var2 var7)) (= var1 var6)) (= var0 var5)) (or (and (<= 0 (+ var4 (- 1))) (= var9 1)) (and (not (<= 0 (+ var4 (- 1)))) (= var9 0))))))) (inv_main109 var3 var2 var1 var0))))
(assert (forall ((var0 Int) (var1 Addr) (var2 Addr) (var3 Heap)) (or (not (and (inv_main16 var3 var2 var1 var0) (= var2 nullAddr))) (inv_main28 var3 var2 var1 var0))))
(assert (forall ((var0 Int) (var1 Int) (var2 Addr) (var3 Addr) (var4 Heap)) (or (not (and (inv_main7 var4 var3 var2 var1) (and (not (= var1 1)) (and (not (= var3 nullAddr)) (= var0 0))))) (inv_main40 var4 var3 var2 var1))))
(assert (forall ((var0 Int) (var1 Addr) (var2 Addr) (var3 Heap) (var4 Addr) (var5 Int) (var6 Addr) (var7 Addr) (var8 Heap)) (or (not (and (inv_main43 var8 var7 var6 var5) (and (and (not (= var4 nullAddr)) (is-O_TSLL (read var8 var7))) (and (and (and (and (= var3 var8) (= var2 var7)) (= var1 var6)) (= var0 var5)) (= var4 (next (getTSLL (read var8 var7)))))))) (inv_main40 var3 var2 var1 var0))))
(assert (forall ((var0 Int) (var1 Addr) (var2 Addr) (var3 Heap)) (or (not (and (inv_main16 var3 var2 var1 var0) (and (not (= var1 nullAddr)) (not (= var2 nullAddr))))) (inv_main7 var3 var2 var1 var0))))
(assert (forall ((var0 Addr) (var1 Heap) (var2 Addr) (var3 Heap)) (or (not (and (inv_main4 var3 var2) (and (is-O_TSLL (read var3 var2)) (and (= var1 (write var3 var2 (O_TSLL (TSLL (next (getTSLL (read var3 var2))) 0)))) (= var0 var2))))) (inv_main7 var1 var0 var0 0))))
(assert (forall ((var0 Addr) (var1 Int) (var2 Addr) (var3 Addr) (var4 Heap) (var5 Int) (var6 Addr) (var7 Addr) (var8 Heap)) (or (not (and (inv_main11 var8 var7 var6 var5) (and (is-O_TSLL (read var8 var6)) (and (and (and (and (= var4 var8) (= var3 var7)) (= var2 var6)) (= var1 var5)) (= var0 (next (getTSLL (read var8 var6)))))))) (inv_main13 var4 var3 var0 var1))))
(assert (forall ((var0 Int) (var1 Addr) (var2 Addr) (var3 Heap)) (or (not (and (inv_main53 var3 var2 var1 var0) (and (not (= var2 nullAddr)) (= var0 3)))) (inv_main75 var3 var2 var1 var0))))
(assert (forall ((var0 Int) (var1 Int) (var2 Addr) (var3 Addr) (var4 Heap)) (or (not (and (inv_main7 var4 var3 var2 var1) (and (not (= var3 nullAddr)) (and (= var1 1) (and (not (= var3 nullAddr)) (= var0 0)))))) (inv_main43 var4 var3 var2 var1))))
(assert (forall ((var0 Int) (var1 Addr) (var2 Addr) (var3 Heap) (var4 Addr) (var5 Int) (var6 Addr) (var7 Addr) (var8 Heap)) (or (not (and (inv_main86 var8 var7 var6 var5) (and (and (= var4 nullAddr) (and (and (is-O_TSLL (read var8 var7)) (is-O_TSLL (read var8 (next (getTSLL (read var8 var7)))))) (is-O_TSLL (read var8 (next (getTSLL (read var8 (next (getTSLL (read var8 var7)))))))))) (and (and (and (and (= var3 var8) (= var2 var7)) (= var1 var6)) (= var0 var5)) (= var4 (next (getTSLL (read var8 (next (getTSLL (read var8 (next (getTSLL (read var8 var7)))))))))))))) (inv_main94 var3 var2 var1 var0))))
(assert (forall ((var0 Int) (var1 Addr) (var2 Addr) (var3 Heap) (var4 Addr) (var5 Int) (var6 Addr) (var7 Addr) (var8 Heap)) (or (not (and (inv_main56 var8 var7 var6 var5) (and (and (= var4 nullAddr) (is-O_TSLL (read var8 var7))) (and (and (and (and (= var3 var8) (= var2 var7)) (= var1 var6)) (= var0 var5)) (= var4 (next (getTSLL (read var8 var7)))))))) (inv_main63 var3 var2 var1 var0))))
(assert (forall ((var0 Int) (var1 Addr) (var2 Addr) (var3 Heap) (var4 Addr) (var5 Int) (var6 Addr) (var7 Addr) (var8 Heap)) (or (not (and (inv_main75 var8 var7 var6 var5) (and (and (not (= var4 nullAddr)) (is-O_TSLL (read var8 var7))) (and (and (and (and (= var3 var8) (= var2 var7)) (= var1 var6)) (= var0 var5)) (= var4 (next (getTSLL (read var8 var7)))))))) (inv_main80 var3 var2 var1 var0))))
(assert (forall ((var0 Int) (var1 Addr) (var2 Addr) (var3 Heap)) (or (not (and (inv_main40 var3 var2 var1 var0) (not (= var0 2)))) (inv_main53 var3 var2 var1 var0))))
(assert (forall ((var0 Int) (var1 Addr) (var2 Addr) (var3 Heap) (var4 Addr) (var5 Int) (var6 Addr) (var7 Addr) (var8 Heap)) (or (not (and (inv_main61 var8 var7 var6 var5) (and (and (not (= var4 nullAddr)) (and (is-O_TSLL (read var8 var7)) (is-O_TSLL (read var8 (next (getTSLL (read var8 var7))))))) (and (and (and (and (= var3 var8) (= var2 var7)) (= var1 var6)) (= var0 var5)) (= var4 (next (getTSLL (read var8 (next (getTSLL (read var8 var7))))))))))) (inv_main53 var3 var2 var1 var0))))
(assert (forall ((var0 Addr) (var1 Addr) (var2 Heap) (var3 Int) (var4 Int) (var5 Addr) (var6 Addr) (var7 Heap)) (or (not (and (inv_main13 var7 var6 var5 var4) (and (and (= var3 0) (is-O_TSLL (read var7 var5))) (and (and (and (= var2 (write var7 var5 (O_TSLL (TSLL nullAddr (data (getTSLL (read var7 var5))))))) (= var1 var6)) (= var0 var5)) (= var3 var4))))) (inv_main17 var2 var1 var0 var3))))
(assert (forall ((var0 TSLL) (var1 Int) (var2 Int) (var3 Addr) (var4 Addr) (var5 Heap)) (or (not (and (inv_main7 var5 var4 var3 var2) (not (= var1 0)))) (inv_main12 (newHeap (alloc var5 (O_TSLL var0))) var4 var3 var2 (newAddr (alloc var5 (O_TSLL var0)))))))
(assert (forall ((var0 Int) (var1 Addr) (var2 Addr) (var3 Heap) (var4 Addr) (var5 Int) (var6 Addr) (var7 Addr) (var8 Heap)) (or (not (and (inv_main80 var8 var7 var6 var5) (and (and (= var4 nullAddr) (and (is-O_TSLL (read var8 var7)) (is-O_TSLL (read var8 (next (getTSLL (read var8 var7))))))) (and (and (and (and (= var3 var8) (= var2 var7)) (= var1 var6)) (= var0 var5)) (= var4 (next (getTSLL (read var8 (next (getTSLL (read var8 var7))))))))))) (inv_main88 var3 var2 var1 var0))))
(assert (forall ((var0 Addr) (var1 Addr) (var2 Heap) (var3 Int) (var4 Int) (var5 Addr) (var6 Addr) (var7 Heap)) (or (not (and (inv_main13 var7 var6 var5 var4) (and (<= 0 (+ var3 (- 2))) (and (not (= var3 1)) (and (and (not (= var3 0)) (is-O_TSLL (read var7 var5))) (and (and (and (= var2 (write var7 var5 (O_TSLL (TSLL nullAddr (data (getTSLL (read var7 var5))))))) (= var1 var6)) (= var0 var5)) (= var3 var4))))))) (inv_main23 var2 var1 var0 var3))))
(assert (forall ((var0 Int) (var1 Int) (var2 Addr) (var3 Addr) (var4 Heap)) (or (not (and (inv_main103 var4 var3 var2 var1) (and (not (= var0 0)) (not (= var2 nullAddr))))) (inv_main106 var4 var3 var2 var1))))
(assert (forall ((var0 Int) (var1 Addr) (var2 Addr) (var3 Heap)) (or (not (and (inv_main103 var3 var2 var1 var0) (and (not (= var2 nullAddr)) (= var1 nullAddr)))) (inv_main119 var3 var2 var2 var0))))
(assert (forall ((var0 Int) (var1 Int) (var2 Addr) (var3 Addr) (var4 Heap)) (or (not (and (inv_main103 var4 var3 var2 var1) (and (not (= var3 nullAddr)) (and (= var0 0) (not (= var2 nullAddr)))))) (inv_main119 var4 var3 var3 var1))))
(assert (forall ((var0 Int) (var1 Addr) (var2 Heap) (var3 Addr) (var4 Int) (var5 Addr) (var6 Addr) (var7 Heap) (var8 Addr) (var9 Int) (var10 Addr) (var11 Addr) (var12 Heap)) (or (not (and (inv_main119 var12 var11 var10 var9) (and (and (not (= var8 nullAddr)) (and (is-O_TSLL (read var12 var11)) (and (and (and (and (= var7 var12) (= var6 var11)) (= var5 var10)) (= var4 var9)) (= var3 (next (getTSLL (read var12 var11))))))) (and (and (and (= var2 (write var7 var5 defObj)) (= var8 var3)) (= var1 var5)) (= var0 var4))))) (inv_main119 var2 var8 var8 var0))))
(assert (forall ((var0 Int) (var1 Addr) (var2 Addr) (var3 Heap) (var4 Addr) (var5 Int) (var6 Addr) (var7 Addr) (var8 Heap)) (or (not (and (inv_main80 var8 var7 var6 var5) (and (and (not (= var4 nullAddr)) (and (is-O_TSLL (read var8 var7)) (is-O_TSLL (read var8 (next (getTSLL (read var8 var7))))))) (and (and (and (and (= var3 var8) (= var2 var7)) (= var1 var6)) (= var0 var5)) (= var4 (next (getTSLL (read var8 (next (getTSLL (read var8 var7))))))))))) (inv_main86 var3 var2 var1 var0))))
(assert (forall ((var0 Int) (var1 Addr) (var2 Addr) (var3 Heap)) (or (not (and (inv_main40 var3 var2 var1 var0) (and (= var2 nullAddr) (= var0 2)))) (inv_main58 var3 var2 var1 var0))))
(assert (forall ((var0 Addr) (var1 Int) (var2 Addr) (var3 Addr) (var4 Heap)) (or (not (and (inv_main12 var4 var3 var2 var1 var0) (is-O_TSLL (read var4 var2)))) (inv_main11 (write var4 var2 (O_TSLL (TSLL var0 (data (getTSLL (read var4 var2)))))) var3 var2 var1))))
(assert (forall ((var0 Int) (var1 Addr) (var2 Addr) (var3 Heap) (var4 Addr) (var5 Int) (var6 Addr) (var7 Addr) (var8 Heap)) (or (not (and (inv_main43 var8 var7 var6 var5) (and (and (= var4 nullAddr) (is-O_TSLL (read var8 var7))) (and (and (and (and (= var3 var8) (= var2 var7)) (= var1 var6)) (= var0 var5)) (= var4 (next (getTSLL (read var8 var7)))))))) (inv_main49 var3 var2 var1 var0))))
(assert (forall ((var0 Addr) (var1 Addr) (var2 Heap) (var3 Int) (var4 Int) (var5 Addr) (var6 Addr) (var7 Heap)) (or (not (and (inv_main13 var7 var6 var5 var4) (and (= var3 1) (and (and (not (= var3 0)) (is-O_TSLL (read var7 var5))) (and (and (and (= var2 (write var7 var5 (O_TSLL (TSLL nullAddr (data (getTSLL (read var7 var5))))))) (= var1 var6)) (= var0 var5)) (= var3 var4)))))) (inv_main20 var2 var1 var0 var3))))
(assert (forall ((var0 Int) (var1 Addr) (var2 Addr) (var3 Heap) (var4 Int) (var5 Int) (var6 Addr) (var7 Addr) (var8 Heap)) (or (not (and (inv_main92 var8 var7 var6 var5) (and (and (not (= var4 3)) (and (and (and (is-O_TSLL (read var8 var7)) (is-O_TSLL (read var8 (next (getTSLL (read var8 var7)))))) (is-O_TSLL (read var8 (next (getTSLL (read var8 (next (getTSLL (read var8 var7))))))))) (is-O_TSLL (read var8 (next (getTSLL (read var8 (next (getTSLL (read var8 (next (getTSLL (read var8 var7))))))))))))) (and (and (and (and (= var3 var8) (= var2 var7)) (= var1 var6)) (= var0 var5)) (= var4 (data (getTSLL (read var8 (next (getTSLL (read var8 (next (getTSLL (read var8 (next (getTSLL (read var8 var7))))))))))))))))) (inv_main99 var3 var2 var1 var0))))
(assert (forall ((var0 Int) (var1 Int) (var2 Addr) (var3 Addr) (var4 Heap)) (or (not (and (inv_main7 var4 var3 var2 var1) (and (= var3 nullAddr) (= var0 0)))) (inv_main37 var4 var3 var2 var1))))
(assert (forall ((var0 Int) (var1 Int) (var2 Addr) (var3 Addr) (var4 Heap)) (or (not (and (inv_main7 var4 var3 var2 var1) (and (= var3 nullAddr) (and (= var1 1) (and (not (= var3 nullAddr)) (= var0 0)))))) (inv_main45 var4 var3 var2 var1))))
(assert (forall ((var0 Int) (var1 Addr) (var2 Addr) (var3 Heap) (var4 Addr) (var5 Int) (var6 Addr) (var7 Addr) (var8 Heap)) (or (not (and (inv_main61 var8 var7 var6 var5) (and (and (= var4 nullAddr) (and (is-O_TSLL (read var8 var7)) (is-O_TSLL (read var8 (next (getTSLL (read var8 var7))))))) (and (and (and (and (= var3 var8) (= var2 var7)) (= var1 var6)) (= var0 var5)) (= var4 (next (getTSLL (read var8 (next (getTSLL (read var8 var7))))))))))) (inv_main68 var3 var2 var1 var0))))
(assert (forall ((var0 Int) (var1 Addr) (var2 Addr) (var3 Heap) (var4 Int) (var5 Addr) (var6 Addr) (var7 Heap)) (or (not (and (inv_main17 var7 var6 var5 var4) (and (is-O_TSLL (read var7 var5)) (and (and (and (= var3 (write var7 var5 (O_TSLL (TSLL (next (getTSLL (read var7 var5))) 1)))) (= var2 var6)) (= var1 var5)) (= var0 var4))))) (inv_main16 var3 var2 var1 1))))
(assert (forall ((var0 Int) (var1 Addr) (var2 Addr) (var3 Heap) (var4 Int) (var5 Addr) (var6 Addr) (var7 Heap)) (or (not (and (inv_main20 var7 var6 var5 var4) (and (is-O_TSLL (read var7 var5)) (and (and (and (= var3 (write var7 var5 (O_TSLL (TSLL (next (getTSLL (read var7 var5))) 2)))) (= var2 var6)) (= var1 var5)) (= var0 var4))))) (inv_main16 var3 var2 var1 2))))
(assert (forall ((var0 Addr) (var1 Addr) (var2 Heap) (var3 Int) (var4 Int) (var5 Addr) (var6 Addr) (var7 Heap)) (or (not (and (inv_main13 var7 var6 var5 var4) (and (not (<= 0 (+ var3 (- 2)))) (and (not (= var3 1)) (and (and (not (= var3 0)) (is-O_TSLL (read var7 var5))) (and (and (and (= var2 (write var7 var5 (O_TSLL (TSLL nullAddr (data (getTSLL (read var7 var5))))))) (= var1 var6)) (= var0 var5)) (= var3 var4))))))) (inv_main16 var2 var1 var0 var3))))
(assert (forall ((var0 Int) (var1 Addr) (var2 Addr) (var3 Heap) (var4 Int) (var5 Addr) (var6 Addr) (var7 Heap)) (or (not (and (inv_main23 var7 var6 var5 var4) (and (is-O_TSLL (read var7 var5)) (and (and (and (= var3 (write var7 var5 (O_TSLL (TSLL (next (getTSLL (read var7 var5))) 3)))) (= var2 var6)) (= var1 var5)) (= var0 var4))))) (inv_main16 var3 var2 var1 3))))
(assert (forall ((var0 Int) (var1 Addr) (var2 Addr) (var3 Heap) (var4 Addr) (var5 Int) (var6 Addr) (var7 Addr) (var8 Heap)) (or (not (and (inv_main86 var8 var7 var6 var5) (and (and (not (= var4 nullAddr)) (and (and (is-O_TSLL (read var8 var7)) (is-O_TSLL (read var8 (next (getTSLL (read var8 var7)))))) (is-O_TSLL (read var8 (next (getTSLL (read var8 (next (getTSLL (read var8 var7)))))))))) (and (and (and (and (= var3 var8) (= var2 var7)) (= var1 var6)) (= var0 var5)) (= var4 (next (getTSLL (read var8 (next (getTSLL (read var8 (next (getTSLL (read var8 var7)))))))))))))) (inv_main92 var3 var2 var1 var0))))
(assert (forall ((var0 Int) (var1 Addr) (var2 Addr) (var3 Heap) (var4 Addr) (var5 Int) (var6 Addr) (var7 Addr) (var8 Heap)) (or (not (and (inv_main56 var8 var7 var6 var5) (and (and (not (= var4 nullAddr)) (is-O_TSLL (read var8 var7))) (and (and (and (and (= var3 var8) (= var2 var7)) (= var1 var6)) (= var0 var5)) (= var4 (next (getTSLL (read var8 var7)))))))) (inv_main61 var3 var2 var1 var0))))
(assert (forall ((var0 Int) (var1 Addr) (var2 Addr) (var3 Heap)) (or (not (and (inv_main16 var3 var2 var1 var0) (and (= var1 nullAddr) (not (= var2 nullAddr))))) (inv_main32 var3 var2 var1 var0))))
(assert (forall ((var0 Int) (var1 Addr) (var2 Addr) (var3 Heap)) (or (not (and (inv_main40 var3 var2 var1 var0) (and (not (= var2 nullAddr)) (= var0 2)))) (inv_main56 var3 var2 var1 var0))))
(assert (forall ((var0 Int) (var1 Addr) (var2 Addr) (var3 Heap) (var4 Int) (var5 Int) (var6 Addr) (var7 Addr) (var8 Heap) (var9 Int) (var10 Int) (var11 Addr) (var12 Addr) (var13 Heap)) (or (not (and (inv_main106 var13 var12 var11 var10) (and (and (= var9 0) (and (and (not (= var10 0)) (is-O_TSLL (read var13 var11))) (and (and (and (and (= var8 var13) (= var7 var12)) (= var6 var11)) (= var5 var10)) (= var4 (data (getTSLL (read var13 var11))))))) (and (and (and (and (= var3 var8) (= var2 var7)) (= var1 var6)) (= var0 var5)) (or (and (<= 0 (+ var4 (- 1))) (= var9 1)) (and (not (<= 0 (+ var4 (- 1)))) (= var9 0))))))) (inv_main111 var3 var2 var1 var0))))
(assert (forall ((var0 Int) (var1 Addr) (var2 Addr) (var3 Heap)) (or (not (and (inv_main53 var3 var2 var1 var0) (not (= var0 3)))) (inv_main72 var3 var2 var1 var0))))
(assert (forall ((var0 Int) (var1 Addr) (var2 Addr) (var3 Heap) (var4 Int) (var5 Int) (var6 Addr) (var7 Addr) (var8 Heap)) (or (not (and (inv_main92 var8 var7 var6 var5) (and (and (= var4 3) (and (and (and (is-O_TSLL (read var8 var7)) (is-O_TSLL (read var8 (next (getTSLL (read var8 var7)))))) (is-O_TSLL (read var8 (next (getTSLL (read var8 (next (getTSLL (read var8 var7))))))))) (is-O_TSLL (read var8 (next (getTSLL (read var8 (next (getTSLL (read var8 (next (getTSLL (read var8 var7))))))))))))) (and (and (and (and (= var3 var8) (= var2 var7)) (= var1 var6)) (= var0 var5)) (= var4 (data (getTSLL (read var8 (next (getTSLL (read var8 (next (getTSLL (read var8 (next (getTSLL (read var8 var7))))))))))))))))) (inv_main72 var3 var2 var1 var0))))
(assert (forall ((var0 Addr) (var1 Heap)) (not (and (inv_main3 var1 var0) (not (is-O_TSLL (read var1 var0)))))))
(assert (forall ((var0 Addr) (var1 Heap)) (not (and (inv_main4 var1 var0) (not (is-O_TSLL (read var1 var0)))))))
(assert (forall ((var0 Addr) (var1 Int) (var2 Addr) (var3 Addr) (var4 Heap)) (not (and (inv_main12 var4 var3 var2 var1 var0) (not (is-O_TSLL (read var4 var2)))))))
(assert (forall ((var0 Int) (var1 Addr) (var2 Addr) (var3 Heap)) (not (and (inv_main11 var3 var2 var1 var0) (not (is-O_TSLL (read var3 var1)))))))
(assert (forall ((var0 Int) (var1 Addr) (var2 Addr) (var3 Heap)) (not (and (inv_main13 var3 var2 var1 var0) (not (is-O_TSLL (read var3 var1)))))))
(assert (forall ((var0 Int) (var1 Addr) (var2 Addr) (var3 Heap)) (not (and (inv_main17 var3 var2 var1 var0) (not (is-O_TSLL (read var3 var1)))))))
(assert (forall ((var0 Int) (var1 Addr) (var2 Addr) (var3 Heap)) (not (and (inv_main20 var3 var2 var1 var0) (not (is-O_TSLL (read var3 var1)))))))
(assert (forall ((var0 Int) (var1 Addr) (var2 Addr) (var3 Heap)) (not (and (inv_main23 var3 var2 var1 var0) (not (is-O_TSLL (read var3 var1)))))))
(assert (forall ((var0 Int) (var1 Addr) (var2 Addr) (var3 Heap)) (not (inv_main28 var3 var2 var1 var0))))
(assert (forall ((var0 Int) (var1 Addr) (var2 Addr) (var3 Heap)) (not (inv_main32 var3 var2 var1 var0))))
(assert (forall ((var0 Int) (var1 Addr) (var2 Addr) (var3 Heap)) (not (inv_main37 var3 var2 var1 var0))))
(assert (forall ((var0 Int) (var1 Addr) (var2 Addr) (var3 Heap)) (not (inv_main45 var3 var2 var1 var0))))
(assert (forall ((var0 Int) (var1 Addr) (var2 Addr) (var3 Heap)) (not (and (inv_main43 var3 var2 var1 var0) (not (is-O_TSLL (read var3 var2)))))))
(assert (forall ((var0 Int) (var1 Addr) (var2 Addr) (var3 Heap)) (not (inv_main49 var3 var2 var1 var0))))
(assert (forall ((var0 Int) (var1 Addr) (var2 Addr) (var3 Heap)) (not (inv_main58 var3 var2 var1 var0))))
(assert (forall ((var0 Int) (var1 Addr) (var2 Addr) (var3 Heap)) (not (and (inv_main56 var3 var2 var1 var0) (not (is-O_TSLL (read var3 var2)))))))
(assert (forall ((var0 Int) (var1 Addr) (var2 Addr) (var3 Heap)) (not (inv_main63 var3 var2 var1 var0))))
(assert (forall ((var0 Int) (var1 Addr) (var2 Addr) (var3 Heap)) (not (and (inv_main61 var3 var2 var1 var0) (not (is-O_TSLL (read var3 var2)))))))
(assert (forall ((var0 Int) (var1 Addr) (var2 Addr) (var3 Heap)) (not (and (inv_main61 var3 var2 var1 var0) (and (is-O_TSLL (read var3 var2)) (not (is-O_TSLL (read var3 (next (getTSLL (read var3 var2)))))))))))
(assert (forall ((var0 Int) (var1 Addr) (var2 Addr) (var3 Heap)) (not (inv_main68 var3 var2 var1 var0))))
(assert (forall ((var0 Int) (var1 Addr) (var2 Addr) (var3 Heap)) (not (inv_main77 var3 var2 var1 var0))))
(assert (forall ((var0 Int) (var1 Addr) (var2 Addr) (var3 Heap)) (not (and (inv_main75 var3 var2 var1 var0) (not (is-O_TSLL (read var3 var2)))))))
(assert (forall ((var0 Int) (var1 Addr) (var2 Addr) (var3 Heap)) (not (inv_main82 var3 var2 var1 var0))))
(assert (forall ((var0 Int) (var1 Addr) (var2 Addr) (var3 Heap)) (not (and (inv_main80 var3 var2 var1 var0) (not (is-O_TSLL (read var3 var2)))))))
(assert (forall ((var0 Int) (var1 Addr) (var2 Addr) (var3 Heap)) (not (and (inv_main80 var3 var2 var1 var0) (and (is-O_TSLL (read var3 var2)) (not (is-O_TSLL (read var3 (next (getTSLL (read var3 var2)))))))))))
(assert (forall ((var0 Int) (var1 Addr) (var2 Addr) (var3 Heap)) (not (inv_main88 var3 var2 var1 var0))))
(assert (forall ((var0 Int) (var1 Addr) (var2 Addr) (var3 Heap)) (not (and (inv_main86 var3 var2 var1 var0) (not (is-O_TSLL (read var3 var2)))))))
(assert (forall ((var0 Int) (var1 Addr) (var2 Addr) (var3 Heap)) (not (and (inv_main86 var3 var2 var1 var0) (and (is-O_TSLL (read var3 var2)) (not (is-O_TSLL (read var3 (next (getTSLL (read var3 var2)))))))))))
(assert (forall ((var0 Int) (var1 Addr) (var2 Addr) (var3 Heap)) (not (and (inv_main86 var3 var2 var1 var0) (and (and (is-O_TSLL (read var3 var2)) (is-O_TSLL (read var3 (next (getTSLL (read var3 var2)))))) (not (is-O_TSLL (read var3 (next (getTSLL (read var3 (next (getTSLL (read var3 var2))))))))))))))
(assert (forall ((var0 Int) (var1 Addr) (var2 Addr) (var3 Heap)) (not (inv_main94 var3 var2 var1 var0))))
(assert (forall ((var0 Int) (var1 Addr) (var2 Addr) (var3 Heap)) (not (and (inv_main92 var3 var2 var1 var0) (not (is-O_TSLL (read var3 var2)))))))
(assert (forall ((var0 Int) (var1 Addr) (var2 Addr) (var3 Heap)) (not (and (inv_main92 var3 var2 var1 var0) (and (is-O_TSLL (read var3 var2)) (not (is-O_TSLL (read var3 (next (getTSLL (read var3 var2)))))))))))
(assert (forall ((var0 Int) (var1 Addr) (var2 Addr) (var3 Heap)) (not (and (inv_main92 var3 var2 var1 var0) (and (and (is-O_TSLL (read var3 var2)) (is-O_TSLL (read var3 (next (getTSLL (read var3 var2)))))) (not (is-O_TSLL (read var3 (next (getTSLL (read var3 (next (getTSLL (read var3 var2))))))))))))))
(assert (forall ((var0 Int) (var1 Addr) (var2 Addr) (var3 Heap)) (not (and (inv_main92 var3 var2 var1 var0) (and (and (and (is-O_TSLL (read var3 var2)) (is-O_TSLL (read var3 (next (getTSLL (read var3 var2)))))) (is-O_TSLL (read var3 (next (getTSLL (read var3 (next (getTSLL (read var3 var2))))))))) (not (is-O_TSLL (read var3 (next (getTSLL (read var3 (next (getTSLL (read var3 (next (getTSLL (read var3 var2)))))))))))))))))
(assert (forall ((var0 Int) (var1 Addr) (var2 Addr) (var3 Heap)) (not (inv_main99 var3 var2 var1 var0))))
(assert (forall ((var0 Int) (var1 Addr) (var2 Addr) (var3 Heap)) (not (and (inv_main72 var3 var2 var1 var0) (not (is-O_TSLL (read var3 var2)))))))
(assert (forall ((var0 Int) (var1 Addr) (var2 Addr) (var3 Heap)) (not (and (inv_main106 var3 var2 var1 var0) (and (not (= var0 0)) (not (is-O_TSLL (read var3 var1))))))))
(assert (forall ((var0 Int) (var1 Addr) (var2 Addr) (var3 Heap)) (not (inv_main111 var3 var2 var1 var0))))
(assert (forall ((var0 Int) (var1 Addr) (var2 Addr) (var3 Heap)) (not (and (inv_main109 var3 var2 var1 var0) (not (is-O_TSLL (read var3 var1)))))))
(assert (forall ((var0 Int) (var1 Addr) (var2 Addr) (var3 Heap)) (not (and (inv_main119 var3 var2 var1 var0) (not (is-O_TSLL (read var3 var2)))))))
(check-sat)
